518
105
622
1671
1135
2075
1980
34
270
566
52
280
127
1503
1518
47
360
78
837
970
21
107
361
0
1544
2657
4583
133
53
348
83
34
0
1725
1699
3262
510
2732
83
45
118
86
4818
102
259
410
100
94
521
47
965
370
488
363
257
282
552
150
96
45
255
270
777
1673
237
265
42
130
1809
131
0
844
1396
747
1733
1754
1882
382
169
177
360
2596
2917
967
48
75
4580
105
550
25
522
676
1100
956
0
903
34
1474
4968
363
